c Random 6-CNF over 30 variables and 90 clauses
c Generated with `cnfgen`
c (C) 2012-2016 Massimo Lauria <lauria.massimo@gmail.com>
c https://massimolauria.github.io/cnfgen
c
c COMMAND LINE: cnfgen --output tmp-6-30-90.dimacs --output-format dimacs randkcnf 6 30 90
c
c sdimacs generated by gen-sdimacs
c
p cnf 30 90
r 0.5 1 2 3 4 5 6 7 8 9 10 11 12 13 14 15 0
e  16 17 18 19 20 21 22 23 24 25 26 27 28 29 30 0
7 8 14 22 26 27 0
-1 -15 17 -24 -25 30 0
3 -6 12 17 21 22 0
1 8 -10 17 21 -27 0
-3 14 16 18 19 26 0
-14 -18 20 -22 -24 25 0
-1 -13 -14 -19 -20 24 0
-14 15 22 -24 26 -30 0
7 -8 -13 14 15 -28 0
-4 -5 6 11 13 -26 0
-5 6 10 -17 21 -27 0
15 17 -20 -25 26 28 0
8 -10 -12 26 27 -29 0
-5 -8 -14 -17 19 -23 0
-1 5 -7 9 17 -30 0
-2 12 -13 -21 -27 -28 0
9 13 -23 -25 -29 -30 0
-6 -7 -17 18 -28 30 0
8 10 15 20 21 25 0
5 6 14 17 -21 23 0
-7 -8 -11 -15 -22 26 0
3 -7 -13 16 -20 25 0
-1 4 7 -14 19 -29 0
-8 -10 -13 18 -23 25 0
2 -3 -8 -10 -21 25 0
2 3 6 16 21 26 0
6 7 -15 -28 -29 30 0
-1 16 -17 -20 -26 -29 0
-4 14 -15 -20 21 -24 0
6 12 23 25 -26 -29 0
2 9 11 -20 -21 22 0
-1 3 4 -17 -21 28 0
4 -6 -11 12 14 25 0
-3 4 7 -16 28 -29 0
-8 -10 11 -12 15 -19 0
-4 -6 11 -19 -23 -29 0
6 11 17 -22 -27 -29 0
7 -8 16 17 -26 -30 0
-5 6 10 18 25 29 0
-3 -4 7 16 18 25 0
-4 9 14 17 24 -28 0
-18 -20 -21 -22 -26 -30 0
-12 22 23 -25 26 -30 0
4 -8 -18 -23 28 30 0
-11 16 -17 -20 -24 26 0
-6 17 -23 27 -28 29 0
3 -7 -8 -16 -27 29 0
-1 3 -15 -22 -27 -28 0
-7 -11 12 -15 17 25 0
1 3 -5 -8 14 15 0
6 -15 16 -20 -29 -30 0
3 11 16 18 20 -24 0
11 -13 -14 -16 26 27 0
3 -11 -13 -21 -29 30 0
2 -4 16 -20 -25 -29 0
-7 11 14 16 -18 23 0
-5 11 13 -24 -27 -29 0
3 -5 10 11 -12 -24 0
-3 -6 8 -10 -16 27 0
-1 2 -4 -16 -20 -25 0
7 -10 14 -16 -20 29 0
-1 18 23 27 -29 30 0
7 9 24 -25 -26 -30 0
1 15 -21 -24 -28 -30 0
4 -15 16 18 -25 26 0
-4 8 -12 -14 -16 -30 0
-4 -7 16 23 24 -29 0
1 -3 -11 12 23 24 0
-5 -8 11 -13 14 -17 0
-4 14 -15 -20 22 29 0
-18 -20 -21 22 -26 30 0
6 -8 13 16 19 21 0
1 -11 16 18 19 20 0
2 -11 -24 -25 -26 -27 0
2 -3 -8 -12 -15 24 0
-3 4 14 16 22 -23 0
-7 17 18 25 -29 -30 0
-10 -12 -13 -20 -21 -25 0
3 10 -11 16 21 -30 0
4 8 -13 -18 25 30 0
3 11 -16 -17 -20 -26 0
-1 -2 -10 22 -23 -25 0
-5 -13 -18 25 28 -30 0
4 7 10 -12 15 -18 0
1 4 11 -17 -22 25 0
-4 -7 8 -20 -22 -27 0
2 4 -10 -22 -23 30 0
2 -4 11 -14 17 18 0
5 9 -15 22 28 -29 0
3 -4 -7 -8 17 30 0
